205 5
10 10 10 10 10 

0 0 0 0 0 0 3 2 14 26 
0 0 0 0 0 0 4 3 4 6 7 
3 0 1 0 0 0 1 5 
9 0 3 0 0 0 2 5 86 
7 0 4 0 0 0 2 12 8 
5 0 1 0 0 0 2 12 8 
4 0 2 0 0 0 1 8 
7 0 4 0 0 0 2 11 9 
6 0 3 0 0 0 1 10 
5 0 1 0 0 0 1 13 
9 0 2 0 0 0 1 13 
7 0 4 0 0 0 1 13 
0 0 0 0 0 0 1 38 
0 0 0 0 0 0 3 15 16 18 
8 1 0 0 0 0 2 22 17 
7 2 0 0 0 0 3 22 20 19 
4 3 0 0 0 0 2 20 19 
1 3 0 0 0 0 2 22 19 
6 3 0 0 0 0 2 23 21 
7 4 0 0 0 0 2 23 21 
8 5 0 0 0 0 1 24 
7 1 0 0 0 0 2 23 182 
1 1 0 0 0 0 1 25 
4 2 0 0 0 0 1 25 
0 0 0 0 0 0 1 38 
0 0 0 0 0 0 5 27 30 31 32 36 
8 0 0 1 0 0 2 34 28 
2 0 0 3 0 0 1 29 
5 0 0 3 0 0 1 33 
8 0 0 2 0 0 1 34 
10 0 0 3 0 0 1 34 
2 0 0 4 0 0 1 33 
10 0 0 4 0 0 2 35 52 
5 0 0 2 0 0 1 35 
2 0 0 1 0 0 1 37 
5 0 0 2 0 0 1 37 
0 0 0 0 0 0 1 38 
0 0 0 0 0 0 3 39 51 63 
0 0 0 0 0 0 4 40 44 45 78 
4 0 1 0 0 0 2 42 41 
8 0 4 0 0 0 2 47 43 
9 0 2 0 0 0 2 47 43 
10 0 3 0 0 0 2 49 46 
5 0 3 0 0 0 2 47 46 
7 0 2 0 0 0 1 46 
7 0 4 0 0 0 1 48 
9 0 4 0 0 0 1 48 
9 0 1 0 0 0 1 50 
4 0 1 0 0 0 1 50 
0 0 0 0 0 0 1 75 
0 0 0 0 0 0 2 52 54 
4 0 0 0 0 1 3 61 57 53 
4 0 0 0 0 3 3 60 59 55 
7 0 0 0 0 3 2 57 55 
3 0 0 0 0 2 2 56 171 
3 0 0 0 0 1 1 58 
1 0 0 0 0 4 1 59 
8 0 0 0 0 3 1 62 
10 0 0 0 0 3 1 62 
3 0 0 0 0 3 1 62 
5 0 0 0 0 2 1 62 
0 0 0 0 0 0 1 75 
0 0 0 0 0 0 6 64 66 67 70 72 73 
6 0 0 1 0 0 1 65 
7 0 0 3 0 0 1 68 
2 0 0 2 0 0 1 68 
3 0 0 2 0 0 1 68 
8 0 0 2 0 0 1 69 
10 0 0 3 0 0 1 71 
4 0 0 2 0 0 1 71 
10 0 0 2 0 0 2 74 189 
3 0 0 2 0 0 1 74 
8 0 0 6 0 0 1 74 
0 0 0 0 0 0 1 75 
0 0 0 0 0 0 3 76 88 100 
0 0 0 0 0 0 4 77 78 79 82 
10 0 0 0 1 0 3 86 85 80 
3 0 0 0 2 0 3 86 85 80 
6 0 0 0 4 0 1 80 
6 0 0 0 2 0 1 81 
4 0 0 0 2 0 1 83 
3 0 0 0 4 0 1 83 
8 0 0 0 2 0 1 84 
3 0 0 0 1 0 2 87 179 
6 0 0 0 5 0 1 87 
9 0 0 0 2 0 1 87 
0 0 0 0 0 0 1 112 
0 0 0 0 0 0 3 89 93 98 
10 0 0 0 1 0 3 97 96 90 
8 0 0 0 2 0 3 95 91 186 
7 0 0 0 2 0 1 92 
9 0 0 0 3 0 1 94 
9 0 0 0 1 0 1 94 
8 0 0 0 3 0 1 99 
1 0 0 0 1 0 1 99 
9 0 0 0 2 0 1 99 
8 0 0 0 6 0 1 99 
8 0 0 0 4 0 1 99 
0 0 0 0 0 0 1 112 
0 0 0 0 0 0 3 101 105 106 
2 0 0 0 0 1 2 104 102 
4 0 0 0 0 3 2 109 103 
1 0 0 0 0 4 2 110 107 
1 0 0 0 0 1 2 109 107 
9 0 0 0 0 4 3 109 107 140 
7 0 0 0 0 1 1 107 
10 0 0 0 0 3 1 108 
6 0 0 0 0 5 1 111 
6 0 0 0 0 2 1 111 
9 0 0 0 0 1 1 111 
0 0 0 0 0 0 1 112 
0 0 0 0 0 0 3 113 135 147 
0 0 0 0 0 0 2 114 133 
3 0 1 0 1 0 1 115 
2 0 1 0 2 0 2 132 116 
10 0 1 0 1 0 2 124 117 
4 0 4 0 1 0 2 118 153 
6 0 2 0 4 0 4 130 129 121 119 
9 0 2 0 2 0 1 120 
5 0 4 0 2 0 3 128 127 122 
3 0 2 0 3 0 2 127 122 
1 0 4 0 4 0 2 126 123 
9 0 1 0 1 0 1 125 
7 0 2 0 2 0 1 131 
9 0 1 0 3 0 1 134 
10 0 3 0 2 0 1 134 
5 0 1 0 1 0 1 134 
3 0 6 0 2 0 1 134 
8 0 5 0 3 0 1 134 
9 0 1 0 4 0 1 134 
8 0 1 0 5 0 1 134 
1 0 2 0 4 0 1 134 
1 0 6 0 3 0 1 134 
0 0 0 0 0 0 1 205 
0 0 0 0 0 0 1 136 
2 0 1 0 0 0 2 140 137 
7 0 3 0 0 0 2 139 138 
9 0 1 0 0 0 3 145 143 141 
7 0 2 0 0 0 3 144 143 142 
10 0 3 0 0 0 3 143 142 182 
5 0 3 0 0 0 1 142 
3 0 2 0 0 0 1 146 
4 0 1 0 0 0 1 146 
4 0 5 0 0 0 1 146 
10 0 4 0 0 0 1 146 
0 0 0 0 0 0 3 169 181 193 
0 0 0 0 0 0 2 148 150 
2 0 1 0 1 0 2 153 149 
2 0 2 0 5 0 1 151 
2 0 1 0 2 0 1 151 
1 0 3 0 2 0 2 154 152 
3 0 1 0 1 0 5 159 158 156 155 186 
6 0 3 0 1 0 3 159 157 154 
2 0 1 0 1 0 3 160 158 156 
3 0 4 0 1 0 2 160 157 
2 0 1 0 5 0 3 167 166 161 
7 0 5 0 3 0 2 167 161 
2 0 1 0 6 0 2 166 161 
4 0 3 0 3 0 2 166 161 
7 0 5 0 2 0 3 166 165 163 
1 0 3 0 4 0 1 162 
3 0 2 0 1 0 2 165 163 
9 0 2 0 2 0 1 164 
4 0 5 0 2 0 1 168 
6 0 4 0 2 0 1 168 
3 0 1 0 1 0 1 168 
8 0 2 0 5 0 1 168 
0 0 0 0 0 0 1 205 
0 0 0 0 0 0 3 170 171 177 
7 0 1 0 0 0 2 176 174 
1 0 2 0 0 0 1 172 
8 0 2 0 0 0 2 179 173 
3 0 2 0 0 0 1 175 
8 0 1 0 0 0 2 175 196 
6 0 1 0 0 0 1 178 
9 0 7 0 0 0 1 179 
8 0 3 0 0 0 1 178 
5 0 3 0 0 0 1 180 
8 0 3 0 0 0 1 180 
0 0 0 0 0 0 1 205 
0 0 0 0 0 0 3 182 186 187 
1 0 1 0 0 0 2 185 183 
10 0 3 0 0 0 3 190 184 200 
8 0 1 0 0 0 2 191 188 
1 0 3 0 0 0 2 190 189 
3 0 5 0 0 0 1 188 
6 0 3 0 0 0 1 188 
7 0 2 0 0 0 1 189 
6 0 2 0 0 0 1 192 
8 0 4 0 0 0 1 192 
9 0 1 0 0 0 1 192 
0 0 0 0 0 0 1 205 
0 0 0 0 0 0 1 194 
2 0 0 0 0 1 2 196 195 
8 0 0 0 0 1 3 199 198 197 
10 0 0 0 0 4 1 197 
3 0 0 0 0 1 3 203 201 200 
1 0 0 0 0 3 2 203 201 
6 0 0 0 0 5 2 203 200 
5 0 0 0 0 2 1 202 
9 0 0 0 0 3 1 202 
7 0 0 0 0 1 1 204 
10 0 0 0 0 4 1 204 
0 0 0 0 0 0 1 205 
0 0 0 0 0 0 0 
